(set-logic QF_S)
(declare-fun var0 () String)
(declare-fun var1 () Int)
(declare-fun var2 () Bool)
(declare-fun var3 () String)
(declare-fun var4 () Int)
(declare-fun var5 () Bool)
(declare-fun var6 () String)
(declare-fun var7 () Int)
(declare-fun var8 () Bool)
(assert (str.contains var6 var6))
(assert (not (not var8)))
(assert (< (str.indexof (str.at var0 var7) (str.substr var6 var7 var4) (str.indexof var3 var6 var7)) (str.indexof (str.replace var0 var6 var6) (str.substr var6 var4 2) (str.indexof var6 var0 var7))))
(assert (not (str.prefixof var6 var3)))
(check-sat)